c Sudoku solution
p cnf 729 0
133 0
155 0
168 0
211 0
227 0
332 0
367 0
389 0
439 0
553 0
565 0
579 0
584 0
613 0
669 0
671 0
692 0
722 0
785 0
819 0
129 0
824 0
923 0
886 0
893 0
918 0
951 0
862 0
831 0
935 0
791 0
999 0
845 0
625 0
315 0
461 0
521 0
181 0
341 0
373 0
483 0
966 0
263 0
743 0
764 0
947 0
858 0
759 0
974 0
982 0
778 0
877 0
249 0
197 0
288 0
328 0
426 0
475 0
596 0
295 0
394 0
356 0
646 0
687 0
498 0
548 0
512 0
537 0
414 0
638 0
442 0
457 0
654 0
116 0
234 0
144 0
252 0
172 0
276 0
717 0
736 0
